
Gurobi 12.0.1 (win64, C++) logging started Thu Apr 17 16:42:26 2025

Set parameter Username
Set parameter LicenseID to value 2618655
Academic license - for non-commercial use only - expires 2026-02-05
Set parameter Threads to value 8
Set parameter LazyConstraints to value 1
Set parameter PreCrush to value 1
Set parameter Seed to value 0
Set parameter Cuts to value -1
Set parameter TimeLimit to value 28800
Set parameter NumericFocus to value 0
Set parameter SolutionLimit to value 10000
Gurobi Optimizer version 12.0.1 build v12.0.1rc0 (win64 - Windows Server 2022.0 (20348.2))

CPU model: AMD EPYC 7513 32-Core Processor, instruction set [SSE2|AVX|AVX2]
Thread count: 18 physical cores, 18 logical processors, using up to 8 threads

Non-default parameters:
SolutionLimit  10000
TimeLimit  28800
PreCrush  1
Threads  8
LazyConstraints  1

Optimize a model with 137 rows, 256 columns and 720 nonzeros
Model fingerprint: 0x55396bd0
Variable types: 0 continuous, 256 integer (256 binary)
Coefficient statistics:
  Matrix range     [1e+00, 1e+00]
  Objective range  [8e+00, 6e+01]
  Bounds range     [1e+00, 1e+00]
  RHS range        [1e+00, 4e+00]

User MIP start produced solution with objective 336.64 (0.03s)
Loaded user MIP start with objective 336.64

Presolve removed 5 rows and 26 columns
Presolve time: 0.00s
Presolved: 132 rows, 230 columns, 660 nonzeros
Variable types: 0 continuous, 230 integer (230 binary)

Root relaxation: objective 2.487960e+02, 63 iterations, 0.00 seconds (0.00 work units)

    Nodes    |    Current Node    |     Objective Bounds      |     Work
 Expl Unexpl |  Obj  Depth IntInf | Incumbent    BestBd   Gap | It/Node Time

     0     0  248.79604    0    -  336.64025  248.79604  26.1%     -    0s
     0     0  250.13267    0   12  336.64025  250.13267  25.7%     -    0s
     0     0  251.62798    0    -  336.64025  251.62798  25.3%     -    0s
     0     0  255.91733    0   17  336.64025  255.91733  24.0%     -    0s
     0     0  257.48490    0    -  336.64025  257.48490  23.5%     -    0s
     0     0  263.75365    0    -  336.64025  263.75365  21.7%     -    0s
     0     0  263.91185    0    -  336.64025  263.91185  21.6%     -    0s
     0     0  264.75097    0    -  336.64025  264.75097  21.4%     -    0s
     0     0  266.23188    0   38  336.64025  266.23188  20.9%     -    0s
     0     0  272.80043    0    -  336.64025  272.80043  19.0%     -    0s
     0     0  273.17885    0    -  336.64025  273.17885  18.9%     -    0s
     0     0  275.95484    0   31  336.64025  275.95484  18.0%     -    0s
     0     0  275.95484    0   35  336.64025  275.95484  18.0%     -    0s
     0     0  275.95484    0   32  336.64025  275.95484  18.0%     -    0s
     0     2  277.10378    0   26  336.64025  277.10378  17.7%     -    1s
    23    60  282.03281    5   47  336.64025  281.84999  16.3%  26.4    6s
H  237   258                     299.2971474  282.03281  5.77%  16.1    9s
   271   259     cutoff   29       299.29715  282.03281  5.77%  15.4   10s
*  276   259              33     298.7019556  282.03281  5.58%  15.2   10s
H  843   375                     297.6508751  287.36293  3.46%  14.2   11s

Cutting planes:
  MIR: 1
  GUB cover: 1
  Lazy constraints: 1840

Explored 1728 nodes (22600 simplex iterations) in 11.81 seconds (1.52 work units)
Thread count was 8 (of 18 available processors)

Solution count 4: 297.651 298.702 299.297 336.64 

Optimal solution found (tolerance 1.00e-04)
Best objective 2.976508750726e+02, best bound 2.976508750726e+02, gap 0.0000%

User-callback calls 3876, time in user-callback 10.38 sec
### START EXACT APPROACH ###
ProblemVariant: 4
### START PREPROCESSING ###
## Start infeasible path procedure ## 
Deleted arcs: 10
Infeasible tail paths: 0
Infeasible 2-node combinations: 5
## Start extended infeasible path procedure ##
Deleted arcs: 10
Infeasible tail paths: 0
Infeasible 2-node combinations: 5
## Start start solution procedure ##
Start solution with 4 Vehicles and total costs 336.64 in 1.31334 s.
### END PREPROCESSING ###
Route 0 0-2-3-8-1-0 : weight util 0.844444 | volume util 0.427467 | feasible with packing heuristic | feasible with CP model
Route 1 0-6-7-14-13-0 : weight util 0.866667 | volume util 0.782178 | infeasible with packing heuristic | feasible with CP model
Route 2 0-11-0 : weight util 0.211111 | volume util 0.278067 | feasible with packing heuristic | feasible with CP model
Route 3 0-12-5-9-10-15-4-0 : weight util 0.944444 | volume util 0.653978 | infeasible with packing heuristic | feasible with CP model
